42778
51,69,70,71,72,73,64,63,65,67,68,74,75,76,77,78,79,80,82,81,90,91,89,87,86,83,84,85,66,62,61,60,59,58,57,54,55,52,53,56,43,44,42,45,47,48,49,46,41,103,106,105,104,119,107,108,109,110,111,99,50,95,96,97,98,93,92,94,88,157,158,160,161,162,166,164,165,172,174,178,180,181,179,183,195,196,202,201,200,199,197,192,191,198,193,194,182,177,176,173,171,135,170,169,163,159,156,102,101,100,112,113,114,115,116,117,168,167,134,136,186,175,189,188,187,190,150,151,152,153,155,154,148,149,147,145,185,184,141,140,143,144,25,146,18,17,9,7,6,8,4,5,2,1,3,16,14,13,10,12,11,19,21,15,20,26,27,28,22,23,24,142,139,138,137,29,127,128,129,130,131,124,126,132,133,125,122,121,120,123,39,118,40,38,37,36,35,34,33,32,31,30,51
